20170607 200 0 0 0
20160509 200 0 0 0
20150428 200 0 0 0
20140617 150 0 0 0
20130704 300 0 0 0
20120702 150 0 0 0
20110613 100 3000 0 0
20100525 200 0 0 0
20090521 150 0 0 0
20080623 150 0 0 0
20070524 100 0 0 0
20060612 100 3000 0 0
20051206 0 3200 0 0
20050511 200 0 0 0
20030529 150 0 0 0
20020520 150 5000 0 0
20010426 150 5000 0 0
